single_objective/SL-DABL/OP/problems/op/OPLib-master/instances/gen1/rat99-gen1-50.oplib
NAME : rat99
COMMENT : Rattled grid (Pulleyblank)
TYPE : OP
DIMENSION : 99
COST_LIMIT : 606
EDGE_WEIGHT_TYPE : EUC_2D
NODE_COORD_SECTION
1 6 4
2 15 15
3 24 18
4 33 12
5 48 12
6 57 14
7 67 10
8 77 10
9 86 15
10 6 21
11 17 26
12 23 25
13 32 35
14 43 23
15 55 35
16 65 36
17 78 39
18 87 35
19 3 53
20 12 44
21 28 53
22 33 49
23 47 46
24 55 52
25 64 50
26 71 57
27 87 57
28 4 72
29 15 78
30 22 70
31 34 71
32 42 79
33 54 77
34 66 79
35 78 67
36 87 73
37 7 81
38 17 95
39 26 98
40 32 97
41 43 88
42 57 89
43 64 85
44 78 83
45 83 98
46 5 109
47 13 111
48 25 102
49 38 119
50 46 107
51 58 110
52 67 110
53 74 113
54 88 110
55 2 124
56 17 134
57 23 129
58 36 131
59 42 137
60 53 123
61 63 135
62 72 134
63 87 129
64 2 146
65 16 147
66 25 153
67 38 155
68 42 158
69 57 154
70 66 151
71 73 151
72 86 149
73 5 177
74 13 162
75 25 169
76 35 177
77 46 172
78 54 166
79 65 174
80 73 161
81 86 162
82 2 195
83 14 196
84 28 189
85 38 187
86 46 195
87 57 194
88 63 188
89 77 193
90 85 194
91 8 211
92 12 217
93 22 210
94 34 216
95 47 203
96 58 213
97 66 206
98 78 210
99 85 204
NODE_SCORE_SECTION
1 1
2 1
3 1
4 1
5 1
6 1
7 1
8 1
9 1
10 1
11 1
12 1
13 1
14 1
15 1
16 1
17 1
18 1
19 1
20 1
21 1
22 1
23 1
24 1
25 1
26 1
27 1
28 1
29 1
30 1
31 1
32 1
33 1
34 1
35 1
36 1
37 1
38 1
39 1
40 1
41 1
42 1
43 1
44 1
45 1
46 1
47 1
48 1
49 1
50 1
51 1
52 1
53 1
54 1
55 1
56 1
57 1
58 1
59 1
60 1
61 1
62 1
63 1
64 1
65 1
66 1
67 1
68 1
69 1
70 1
71 1
72 1
73 1
74 1
75 1
76 1
77 1
78 1
79 1
80 1
81 1
82 1
83 1
84 1
85 1
86 1
87 1
88 1
89 1
90 1
91 1
92 1
93 1
94 1
95 1
96 1
97 1
98 1
99 1
DEPOT_SECTION
1
-1
EOF
