single_objective/SL-DABL/OP/problems/op/OPLib-master/solutions/ea4op/gen1/rat99-gen1-50.sol
NAME : rat99
TYPE : OP
DIMENSION : 99
COST_LIMIT : 606
ROUTE_NODES : 52
ROUTE_SCORE : 52
ROUTE_COST : 605
NODE_SEQUENCE_SECTION
1
2
3
4
5
6
7
8
9
18
17
16
15
23
24
25
26
35
36
44
34
43
42
51
52
53
62
71
70
69
78
68
67
59
58
57
56
55
46
47
48
39
40
41
32
31
21
22
13
12
11
10
-1
DEPOT_SECTION
1
-1
EOF
